\ Model Routes
\ LP format - for model browsing. Use MPS format to capture full model detail.
Maximize
  1002.745206194839 R{0,0} + 2061.196024458567 R{0,1}
   + 2061.196024458567 R{0,2} - 249.2301939667805 R{0,3}
   + 222.8649545650627 R{0,4} + 892.5014194710873 R{0,5}
   + 937.1989955277968 R{0,6} + 1060.933671547533 R{0,7}
   + 1962.115296661373 R{0,8} + 588.8344950519804 R{0,9}
   + 230.5085459237135 R{0,10} + 2238.350109066094 R{0,11}
   + 1219.449112069051 R{0,12} + 896.5794039659813 R{0,13}
   + 108.5677407282498 R{0,14} + 1014.286564182904 R{0,15}
   + 928.7941448314266 R{0,16} + 873.2268386325252 R{0,17}
   + 800.8564943805829 R{0,18} + 1207.160961093893 R{0,19}
   + 1131.423110363923 R{0,20} + 1543.648029277422 R{0,21}
   + 1697.972271823249 R{0,22} + 2226.091800009423 R{0,23}
   + 1536.250716343667 R{0,24} + 2055.223512330446 R{0,25}
   + 1381.179488871651 R{0,26} + 426.0462613747952 R{0,27}
   + 1456.134031733095 R{0,28} + 1103.024358387463 R{0,29}
   + 1443.880009262901 R{0,30} + 1296.31888591478 R{0,31}
   + 1345.446687823885 R{0,32} + 793.4383138007136 R{0,33}
   + 2593.745514141791 R{0,34} + 223.3257094857565 R{0,35}
   + 1908.787483430861 R{0,36} + 534.872489818413 R{0,37}
   + 1948.088145203784 R{0,38} + 949.9504947095368 R{0,39}
   + 1829.400981119001 R{0,40} + 576.9683342825522 R{0,41}
   + 1020.724606862432 R{0,42} - 256.140831891889 R{1,0}
   + 41.44651618699046 R{1,1} + 468.947430945026 R{1,2}
   + 788.6501778656678 R{1,3} + 806.7977455945911 R{1,4}
   + 90.95799008240454 R{1,5} + 200.035929732849 R{1,6}
   + 705.4352080196788 R{1,7} + 818.2748011405019 R{1,8}
   + 466.1512155265586 R{1,9} + 19.80613194226424 R{1,10}
   + 950.9974198472862 R{1,11} + 466.1512155265586 R{1,12}
   + 729.6784362525084 R{1,13} + 466.1512155265586 R{1,14}
   + 579.8992548699734 R{1,15} - 278.4443928850388 R{2,0}
   - 59.13410337035452 R{2,1} + 602.7748664658451 R{2,2}
   + 1100.505917706273 R{2,3} + 1448.248264420176 R{2,4}
   + 1555.8008405146 R{2,5} + 188.8677732867749 R{2,6}
   + 916.1789585751681 R{2,7} + 828.8248253792985 R{2,8}
   + 179.6786582510113 R{2,9} + 746.4192457897301 R{2,10}
   + 465.2175846111744 R{2,11} + 659.555717454111 R{2,12}
   + 395.796393489625 R{2,13} + 541.7348478638544 R{2,14}
   + 1661.847145705817 R{2,15} + 1254.173283087674 R{2,16}
   + 395.796393489625 R{2,17} + 395.796393489625 R{2,18}
   + 549.7321682704596 R{2,19} + 1164.282473036178 R{2,20}
   + 709.7316892843273 R{2,21} + 395.796393489625 R{2,22}
   - 260.2482995389823 R{3,0} + 637.8926476026959 R{3,1}
   + 2105.287740450534 R{3,2} + 2466.290457720655 R{3,3}
   + 2953.896673376409 R{3,4} + 559.1044093239825 R{3,5}
   + 3389.225349257802 R{3,6} + 2647.857583295643 R{3,7}
   + 1250.443548079231 R{3,8} + 485.2621736575744 R{3,9}
   + 1899.615814265272 R{3,10} + 2747.060039231202 R{3,11}
   + 1732.900108189364 R{3,12} + 1783.582001056879 R{3,13}
   + 1065.007161587021 R{3,14} + 1253.522647207862 R{3,15}
   + 1578.482291795691 R{3,16} + 2580.155172641053 R{3,17}
   + 2631.341634409242 R{3,18} + 1243.76107818764 R{3,19}
   + 1883.00529660085 R{3,20} + 2561.417767641844 R{3,21}
   + 2865.197795690569 R{3,22} + 1489.270236846468 R{3,23}
   + 1552.302391432186 R{3,24} + 2184.452296415861 R{3,25}
   + 1747.372605018892 R{3,26} + 1905.169235200833 R{3,27}
   + 1393.707189565386 R{3,28} + 2630.840833966451 R{3,29}
   + 1328.346050872204 R{3,30} + 1336.201493564382 R{3,31}
   + 1755.442840731214 R{3,32} + 2783.594502536146 R{3,33}
   + 1772.778330984327 R{3,34} - 242.5208875955131 R{4,0}
   + 828.5964431846835 R{4,1} + 1338.413574514046 R{4,2}
   + 1390.021034191251 R{4,3} + 1249.329762907224 R{4,4}
   + 2097.087485486674 R{4,5} + 1427.526070544752 R{4,6}
   + 1362.595735899609 R{4,7} + 1126.824989161322 R{4,8}
   + 1763.70784361888 R{4,9} + 1039.701938092673 R{4,10}
   + 1868.383567589343 R{4,11} + 525.9133978179224 R{4,12}
   + 919.9908249269008 R{4,13} + 1330.236118967058 R{4,14}
   + 1220.962919189936 R{4,15} + 1856.844642083332 R{4,16}
   + 841.1428631453776 R{4,17} + 1613.538522560299 R{4,18}
   + 291.1075534565966 R{4,19} + 1038.28353355027 R{4,20}
   + 1393.615394568701 R{4,21} + 1402.520623373641 R{4,22}
   + 1028.458289257601 R{4,23} + 982.4755491132437 R{4,24}
   + 982.4755491132437 R{4,25} + 993.9025285838241 R{4,26}
   + 1067.171358680612 R{4,27} + 1025.338842105198 R{4,28}
   + 1037.041273810581 R{4,29} + 2139.740989002504 R{4,30}
   + 1142.661477353312 R{4,31} + 1462.844327753737 R{4,32}
   + 1527.35173884289 R{4,33} + 451.2723678731574 R{4,34}
   + 1251.111853294212 R{4,35} + 605.9828015829556 R{4,36}
   + 763.7159654101451 R{4,37} + 993.0950615128015 R{4,38}
   + 692.0787230083054 R{4,39} + 1638.205856529355 R{4,40}
   - 231.9775664337766 R{5,0} + 242.1080744790759 R{5,1}
   + 1358.300299535796 R{5,2} + 1358.300299535796 R{5,3}
   + 1485.394457594266 R{5,4} + 1259.035773830128 R{5,5}
   + 1184.712152290392 R{5,6} + 1896.080006868603 R{5,7}
   + 825.8991613907829 R{5,8} + 288.3325882635384 R{5,9}
   + 1554.459612720436 R{5,10} + 1098.688073110922 R{5,11}
   + 759.3478070591625 R{5,12} + 1611.046374554481 R{5,13}
   + 747.0600764231258 R{5,14} + 1486.03826015395 R{5,15}
   + 1025.648110385276 R{5,16} + 1350.314681515968 R{5,17}
   + 1357.358205886962 R{5,18} + 1826.567432600421 R{5,19}
   + 729.5702904924087 R{5,20} + 874.4561900373824 R{5,21}
   + 1097.646022947442 R{5,22} + 1791.437411528494 R{5,23}
   + 597.9306520570705 R{5,24} + 362.2209736066707 R{5,25}
   + 697.4793234697629 R{5,26} + 1025.648110385276 R{5,27}
   + 1147.17175915038 R{5,28} + 416.2852527013237 R{5,29}
   + 473.016524891938 R{5,30} + 1643.368627133983 R{5,31}
   - 231.1436095783099 R{6,0} + 1381.891878324568 R{6,1}
   + 2138.911397941406 R{6,2} + 2560.066428814385 R{6,3}
   + 2266.675730871345 R{6,4} + 3164.625909836483 R{6,5}
   + 219.6500702370398 R{6,6} + 2960.774006210368 R{6,7}
   + 1979.900130413256 R{6,8} + 2432.645107587838 R{6,9}
   + 2616.569784517007 R{6,10} + 2713.581186722991 R{6,11}
   + 2268.357335410439 R{6,12} + 1462.3645676351 R{6,13}
   + 2334.387165728504 R{6,14} + 2422.896114297267 R{6,15}
   + 2496.72824183808 R{6,16} + 1127.580641237863 R{6,17}
   + 2515.607115775278 R{6,18} + 1575.310698984557 R{6,19}
   + 2229.82154700538 R{6,20} + 1414.827737932031 R{6,21}
   + 1525.502248694294 R{6,22} + 1781.426658659395 R{6,23}
   + 1897.715265233191 R{6,24} + 2460.999065237078 R{6,25}
   + 1514.802210731428 R{6,26} + 2144.501819066127 R{6,27}
   + 1221.659713896752 R{6,28} + 1780.128277246521 R{6,29}
   + 2295.680341005475 R{6,30} + 1522.466467959982 R{6,31}
   + 1588.328415273812 R{6,32} + 1546.979734188031 R{6,33}
   + 1511.354731864038 R{6,34} + 3555.267507141618 R{6,35}
   + 1604.108998210161 R{6,36} + 854.6313642546186 R{6,37}
   + 1326.969290317794 R{6,38} + 3115.371508693513 R{6,39}
Subject To
 R00: R{0,0} <= 1
 R01: R{0,1} <= 1
 R02: R{0,2} <= 1
 R03: R{0,3} <= 1
 R04: R{0,4} <= 1
 R05: R{0,5} <= 1
 R06: R{0,6} <= 1
 R07: R{0,7} <= 1
 R08: R{0,8} <= 1
 R09: R{0,9} <= 1
 R010: R{0,10} <= 1
 R011: R{0,11} <= 1
 R012: R{0,12} <= 1
 R013: R{0,13} <= 1
 R014: R{0,14} <= 1
 R015: R{0,15} <= 1
 R016: R{0,16} <= 1
 R017: R{0,17} <= 1
 R018: R{0,18} <= 1
 R019: R{0,19} <= 1
 R020: R{0,20} <= 1
 R021: R{0,21} <= 1
 R022: R{0,22} <= 1
 R023: R{0,23} <= 1
 R024: R{0,24} <= 1
 R025: R{0,25} <= 1
 R026: R{0,26} <= 1
 R027: R{0,27} <= 1
 R028: R{0,28} <= 1
 R029: R{0,29} <= 1
 R030: R{0,30} <= 1
 R031: R{0,31} <= 1
 R032: R{0,32} <= 1
 R033: R{0,33} <= 1
 R034: R{0,34} <= 1
 R035: R{0,35} <= 1
 R036: R{0,36} <= 1
 R037: R{0,37} <= 1
 R038: R{0,38} <= 1
 R039: R{0,39} <= 1
 R040: R{0,40} <= 1
 R041: R{0,41} <= 1
 R042: R{0,42} <= 1
 R043: R{1,0} <= 1
 R044: R{1,1} <= 1
 R045: R{1,2} <= 1
 R046: R{1,3} <= 1
 R047: R{1,4} <= 1
 R048: R{1,5} <= 1
 R049: R{1,6} <= 1
 R050: R{1,7} <= 1
 R051: R{1,8} <= 1
 R052: R{1,9} <= 1
 R053: R{1,10} <= 1
 R054: R{1,11} <= 1
 R055: R{1,12} <= 1
 R056: R{1,13} <= 1
 R057: R{1,14} <= 1
 R058: R{1,15} <= 1
 R059: R{2,0} <= 1
 R060: R{2,1} <= 1
 R061: R{2,2} <= 1
 R062: R{2,3} <= 1
 R063: R{2,4} <= 1
 R064: R{2,5} <= 1
 R065: R{2,6} <= 1
 R066: R{2,7} <= 1
 R067: R{2,8} <= 1
 R068: R{2,9} <= 1
 R069: R{2,10} <= 1
 R070: R{2,11} <= 1
 R071: R{2,12} <= 1
 R072: R{2,13} <= 1
 R073: R{2,14} <= 1
 R074: R{2,15} <= 1
 R075: R{2,16} <= 1
 R076: R{2,17} <= 1
 R077: R{2,18} <= 1
 R078: R{2,19} <= 1
 R079: R{2,20} <= 1
 R080: R{2,21} <= 1
 R081: R{2,22} <= 1
 R082: R{3,0} <= 1
 R083: R{3,1} <= 1
 R084: R{3,2} <= 1
 R085: R{3,3} <= 1
 R086: R{3,4} <= 1
 R087: R{3,5} <= 1
 R088: R{3,6} <= 1
 R089: R{3,7} <= 1
 R090: R{3,8} <= 1
 R091: R{3,9} <= 1
 R092: R{3,10} <= 1
 R093: R{3,11} <= 1
 R094: R{3,12} <= 1
 R095: R{3,13} <= 1
 R096: R{3,14} <= 1
 R097: R{3,15} <= 1
 R098: R{3,16} <= 1
 R099: R{3,17} <= 1
 R0100: R{3,18} <= 1
 R0101: R{3,19} <= 1
 R0102: R{3,20} <= 1
 R0103: R{3,21} <= 1
 R0104: R{3,22} <= 1
 R0105: R{3,23} <= 1
 R0106: R{3,24} <= 1
 R0107: R{3,25} <= 1
 R0108: R{3,26} <= 1
 R0109: R{3,27} <= 1
 R0110: R{3,28} <= 1
 R0111: R{3,29} <= 1
 R0112: R{3,30} <= 1
 R0113: R{3,31} <= 1
 R0114: R{3,32} <= 1
 R0115: R{3,33} <= 1
 R0116: R{3,34} <= 1
 R0117: R{4,0} <= 1
 R0118: R{4,1} <= 1
 R0119: R{4,2} <= 1
 R0120: R{4,3} <= 1
 R0121: R{4,4} <= 1
 R0122: R{4,5} <= 1
 R0123: R{4,6} <= 1
 R0124: R{4,7} <= 1
 R0125: R{4,8} <= 1
 R0126: R{4,9} <= 1
 R0127: R{4,10} <= 1
 R0128: R{4,11} <= 1
 R0129: R{4,12} <= 1
 R0130: R{4,13} <= 1
 R0131: R{4,14} <= 1
 R0132: R{4,15} <= 1
 R0133: R{4,16} <= 1
 R0134: R{4,17} <= 1
 R0135: R{4,18} <= 1
 R0136: R{4,19} <= 1
 R0137: R{4,20} <= 1
 R0138: R{4,21} <= 1
 R0139: R{4,22} <= 1
 R0140: R{4,23} <= 1
 R0141: R{4,24} <= 1
 R0142: R{4,25} <= 1
 R0143: R{4,26} <= 1
 R0144: R{4,27} <= 1
 R0145: R{4,28} <= 1
 R0146: R{4,29} <= 1
 R0147: R{4,30} <= 1
 R0148: R{4,31} <= 1
 R0149: R{4,32} <= 1
 R0150: R{4,33} <= 1
 R0151: R{4,34} <= 1
 R0152: R{4,35} <= 1
 R0153: R{4,36} <= 1
 R0154: R{4,37} <= 1
 R0155: R{4,38} <= 1
 R0156: R{4,39} <= 1
 R0157: R{4,40} <= 1
 R0158: R{5,0} <= 1
 R0159: R{5,1} <= 1
 R0160: R{5,2} <= 1
 R0161: R{5,3} <= 1
 R0162: R{5,4} <= 1
 R0163: R{5,5} <= 1
 R0164: R{5,6} <= 1
 R0165: R{5,7} <= 1
 R0166: R{5,8} <= 1
 R0167: R{5,9} <= 1
 R0168: R{5,10} <= 1
 R0169: R{5,11} <= 1
 R0170: R{5,12} <= 1
 R0171: R{5,13} <= 1
 R0172: R{5,14} <= 1
 R0173: R{5,15} <= 1
 R0174: R{5,16} <= 1
 R0175: R{5,17} <= 1
 R0176: R{5,18} <= 1
 R0177: R{5,19} <= 1
 R0178: R{5,20} <= 1
 R0179: R{5,21} <= 1
 R0180: R{5,22} <= 1
 R0181: R{5,23} <= 1
 R0182: R{5,24} <= 1
 R0183: R{5,25} <= 1
 R0184: R{5,26} <= 1
 R0185: R{5,27} <= 1
 R0186: R{5,28} <= 1
 R0187: R{5,29} <= 1
 R0188: R{5,30} <= 1
 R0189: R{5,31} <= 1
 R0190: R{6,0} <= 1
 R0191: R{6,1} <= 1
 R0192: R{6,2} <= 1
 R0193: R{6,3} <= 1
 R0194: R{6,4} <= 1
 R0195: R{6,5} <= 1
 R0196: R{6,6} <= 1
 R0197: R{6,7} <= 1
 R0198: R{6,8} <= 1
 R0199: R{6,9} <= 1
 R0200: R{6,10} <= 1
 R0201: R{6,11} <= 1
 R0202: R{6,12} <= 1
 R0203: R{6,13} <= 1
 R0204: R{6,14} <= 1
 R0205: R{6,15} <= 1
 R0206: R{6,16} <= 1
 R0207: R{6,17} <= 1
 R0208: R{6,18} <= 1
 R0209: R{6,19} <= 1
 R0210: R{6,20} <= 1
 R0211: R{6,21} <= 1
 R0212: R{6,22} <= 1
 R0213: R{6,23} <= 1
 R0214: R{6,24} <= 1
 R0215: R{6,25} <= 1
 R0216: R{6,26} <= 1
 R0217: R{6,27} <= 1
 R0218: R{6,28} <= 1
 R0219: R{6,29} <= 1
 R0220: R{6,30} <= 1
 R0221: R{6,31} <= 1
 R0222: R{6,32} <= 1
 R0223: R{6,33} <= 1
 R0224: R{6,34} <= 1
 R0225: R{6,35} <= 1
 R0226: R{6,36} <= 1
 R0227: R{6,37} <= 1
 R0228: R{6,38} <= 1
 R0229: R{6,39} <= 1
 R1_0: R{0,0} + R{0,1} + R{0,2} + R{0,3} + R{0,4} + R{0,5} + R{0,6}
   + R{0,7} + R{0,8} + R{0,9} + R{0,10} + R{0,11} + R{0,12} + R{0,13}
   + R{0,14} + R{0,15} + R{0,16} + R{0,17} + R{0,18} + R{0,19} + R{0,20}
   + R{0,21} + R{0,22} + R{0,23} + R{0,24} + R{0,25} + R{0,26} + R{0,27}
   + R{0,28} + R{0,29} + R{0,30} + R{0,31} + R{0,32} + R{0,33} + R{0,34}
   + R{0,35} + R{0,36} + R{0,37} + R{0,38} + R{0,39} + R{0,40} + R{0,41}
   + R{0,42} <= 1
 R1_1: R{1,0} + R{1,1} + R{1,2} + R{1,3} + R{1,4} + R{1,5} + R{1,6}
   + R{1,7} + R{1,8} + R{1,9} + R{1,10} + R{1,11} + R{1,12} + R{1,13}
   + R{1,14} + R{1,15} <= 1
 R1_2: R{2,0} + R{2,1} + R{2,2} + R{2,3} + R{2,4} + R{2,5} + R{2,6}
   + R{2,7} + R{2,8} + R{2,9} + R{2,10} + R{2,11} + R{2,12} + R{2,13}
   + R{2,14} + R{2,15} + R{2,16} + R{2,17} + R{2,18} + R{2,19} + R{2,20}
   + R{2,21} + R{2,22} <= 1
 R1_3: R{3,0} + R{3,1} + R{3,2} + R{3,3} + R{3,4} + R{3,5} + R{3,6}
   + R{3,7} + R{3,8} + R{3,9} + R{3,10} + R{3,11} + R{3,12} + R{3,13}
   + R{3,14} + R{3,15} + R{3,16} + R{3,17} + R{3,18} + R{3,19} + R{3,20}
   + R{3,21} + R{3,22} + R{3,23} + R{3,24} + R{3,25} + R{3,26} + R{3,27}
   + R{3,28} + R{3,29} + R{3,30} + R{3,31} + R{3,32} + R{3,33} + R{3,34}
   <= 1
 R1_4: R{4,0} + R{4,1} + R{4,2} + R{4,3} + R{4,4} + R{4,5} + R{4,6}
   + R{4,7} + R{4,8} + R{4,9} + R{4,10} + R{4,11} + R{4,12} + R{4,13}
   + R{4,14} + R{4,15} + R{4,16} + R{4,17} + R{4,18} + R{4,19} + R{4,20}
   + R{4,21} + R{4,22} + R{4,23} + R{4,24} + R{4,25} + R{4,26} + R{4,27}
   + R{4,28} + R{4,29} + R{4,30} + R{4,31} + R{4,32} + R{4,33} + R{4,34}
   + R{4,35} + R{4,36} + R{4,37} + R{4,38} + R{4,39} + R{4,40} <= 1
 R1_5: R{5,0} + R{5,1} + R{5,2} + R{5,3} + R{5,4} + R{5,5} + R{5,6}
   + R{5,7} + R{5,8} + R{5,9} + R{5,10} + R{5,11} + R{5,12} + R{5,13}
   + R{5,14} + R{5,15} + R{5,16} + R{5,17} + R{5,18} + R{5,19} + R{5,20}
   + R{5,21} + R{5,22} + R{5,23} + R{5,24} + R{5,25} + R{5,26} + R{5,27}
   + R{5,28} + R{5,29} + R{5,30} + R{5,31} <= 1
 R1_6: R{6,0} + R{6,1} + R{6,2} + R{6,3} + R{6,4} + R{6,5} + R{6,6}
   + R{6,7} + R{6,8} + R{6,9} + R{6,10} + R{6,11} + R{6,12} + R{6,13}
   + R{6,14} + R{6,15} + R{6,16} + R{6,17} + R{6,18} + R{6,19} + R{6,20}
   + R{6,21} + R{6,22} + R{6,23} + R{6,24} + R{6,25} + R{6,26} + R{6,27}
   + R{6,28} + R{6,29} + R{6,30} + R{6,31} + R{6,32} + R{6,33} + R{6,34}
   + R{6,35} + R{6,36} + R{6,37} + R{6,38} + R{6,39} <= 1
 R2_0: 7 R{0,0} + 7 R{0,1} + 7 R{0,2} + 7 R{0,6} + 7 R{0,7} + 7 R{0,8}
   + 7 R{0,11} + 7 R{0,12} + 7 R{0,13} + 7 R{0,15} + 7 R{0,16} + 7 R{0,17}
   + 7 R{0,18} + 7 R{0,19} + 7 R{0,20} + 7 R{0,21} + 7 R{0,22} + 7 R{0,23}
   + 7 R{0,24} + 7 R{0,25} + 7 R{0,26} + 7 R{0,28} + 7 R{0,29} + 7 R{0,30}
   + 7 R{0,31} + 7 R{0,32} + 7 R{0,33} + 7 R{0,34} + 7 R{0,36} + 7 R{0,37}
   + 7 R{0,38} + 7 R{0,39} + 7 R{0,40} + 7 R{0,41} + 7 R{0,42} + 7 R{3,32}
   + 7 R{4,26} <= 7
 R2_1: 10 R{2,6} + 10 R{2,21} + 10 R{3,1} + 10 R{3,2} + 10 R{3,3}
   + 10 R{3,4} + 10 R{3,5} + 10 R{3,8} + 10 R{3,9} + 10 R{3,13}
   + 10 R{3,14} + 10 R{3,20} + 10 R{3,21} + 10 R{3,22} + 10 R{3,25}
   + 10 R{3,26} + 10 R{3,27} + 10 R{3,28} + 10 R{3,30} + 10 R{3,32}
   + 9 R{5,4} + 9 R{5,7} + 10 R{5,31} <= 10
 R2_2: <= 0
 R2_3: 4 R{4,30} + 4 R{4,31} + 4 R{5,1} + 4 R{5,2} + 4 R{5,3} + 4 R{5,5}
   + 4 R{5,8} + 4 R{5,9} + 4 R{5,11} + 4 R{5,12} + 4 R{5,15} + 4 R{5,19}
   + 4 R{5,21} + 4 R{5,29} + 4 R{6,4} + 4 R{6,10} + 4 R{6,14} <= 4
 R2_4: <= 0
 R2_5: 5 R{5,1} + 5 R{5,2} + 5 R{5,3} + 3 R{5,4} + 3 R{5,6} + 3 R{5,7}
   + 5 R{5,9} + 3 R{5,10} + 5 R{5,14} + 5 R{5,29} <= 5
 R2_6: 10 R{1,1} + 10 R{1,3} + 10 R{1,4} + 10 R{1,5} + 10 R{1,11}
   + 10 R{1,13} + 10 R{2,8} + 10 R{2,9} + 10 R{2,12} + 10 R{3,10}
   + 10 R{3,12} + 10 R{3,19} + 10 R{3,25} + 10 R{3,27} + 10 R{3,34}
   + 10 R{4,30} + 10 R{5,14} + 9 R{5,17} + 10 R{5,21} + 10 R{5,22}
   + 10 R{5,24} + 10 R{5,26} + 9 R{5,28} <= 10
 R2_7: 6 R{1,1} + 6 R{1,2} + 6 R{1,3} + 6 R{1,4} + 6 R{1,5} + 6 R{1,6}
   + 6 R{1,7} + 6 R{1,10} <= 6
 R2_8: <= 0
 R2_9: 12 R{4,1} + 12 R{4,2} + 12 R{4,3} + 12 R{4,4} + 12 R{4,5}
   + 12 R{4,6} + 12 R{4,7} + 12 R{4,8} + 12 R{4,9} + 12 R{4,10}
   + 12 R{4,13} + 12 R{4,14} + 12 R{4,15} + 12 R{4,16} + 12 R{4,18}
   + 12 R{4,20} + 12 R{4,21} + 12 R{4,22} + 12 R{4,23} + 12 R{4,24}
   + 12 R{4,25} + 12 R{4,26} + 12 R{4,27} + 12 R{4,28} + 12 R{4,29}
   + 12 R{4,32} + 12 R{4,33} + 12 R{4,34} + 12 R{4,35} + 12 R{4,36}
   + 12 R{4,37} + 12 R{4,39} + 12 R{6,19} + 12 R{6,27} + 12 R{6,29}
   + 12 R{6,31} + 12 R{6,38} <= 12
 R2_10: 8 R{6,1} + 8 R{6,2} + 8 R{6,4} + 8 R{6,5} + 8 R{6,8} + 8 R{6,15}
   + 8 R{6,16} + 8 R{6,18} + 8 R{6,20} + 8 R{6,22} + 8 R{6,23} + 8 R{6,30}
   + 8 R{6,33} + 8 R{6,35} + 8 R{6,36} + 8 R{6,37} + 8 R{6,39} <= 8
 R2_11: 15 R{0,16} + 15 R{0,29} + 15 R{0,30} + 15 R{0,33} + 15 R{0,37}
   + 15 R{4,17} + 15 R{4,31} + 15 R{6,19} + 15 R{6,28} + 15 R{6,31}
   + 15 R{6,38} <= 15
 R2_12: <= 0
 R2_13: <= 0
 R2_14: <= 0
 R2_15: 11 R{0,0} + 11 R{0,1} + 11 R{0,2} + 11 R{0,8} + 11 R{0,11}
   + 11 R{0,12} + 11 R{0,15} + 11 R{0,19} + 11 R{0,20} + 11 R{0,21}
   + 11 R{0,22} + 11 R{0,26} + 11 R{0,39} + 11 R{0,40} + 11 R{4,1}
   + 11 R{4,2} + 11 R{4,3} + 11 R{4,9} + 11 R{4,16} + 11 R{4,23}
   + 11 R{4,28} <= 11
 R2_16: 5 R{0,15} + 5 R{0,24} + 5 R{0,32} + 5 R{6,5} + 5 R{6,8} + 5 R{6,15}
   + 5 R{6,16} + 5 R{6,18} + 5 R{6,19} + 5 R{6,20} + 5 R{6,21} + 5 R{6,23}
   + 5 R{6,25} + 5 R{6,27} + 5 R{6,28} + 5 R{6,30} + 5 R{6,31} + 5 R{6,33}
   + 5 R{6,34} + 5 R{6,35} + 5 R{6,37} + 5 R{6,38} + 5 R{6,39} <= 5
 R2_17: 11 R{0,42} + 11 R{3,10} + 11 R{3,12} + 11 R{3,16} + 11 R{3,19}
   + 11 R{3,24} + 11 R{3,34} <= 11
 R2_18: 5 R{0,26} + 5 R{0,37} <= 5
 R2_19: 8 R{0,8} + 11 R{0,12} + 11 R{0,14} + 11 R{0,21} + 11 R{0,22}
   + 11 R{0,24} + 11 R{0,26} + 10 R{0,39} + 11 R{1,8} + 11 R{2,7}
   + 11 R{2,10} + 11 R{2,14} + 11 R{3,16} + 11 R{4,1} + 11 R{4,2}
   + 11 R{4,3} + 11 R{4,4} + 11 R{4,5} + 11 R{4,6} + 11 R{4,7} + 11 R{4,9}
   + 11 R{4,10} + 11 R{4,16} + 11 R{4,18} + 11 R{4,21} + 11 R{4,23}
   + 11 R{4,28} + 11 R{5,10} + 11 R{5,13} + 11 R{5,16} + 9 R{5,20}
   + 11 R{5,27} + 11 R{6,4} + 11 R{6,10} + 11 R{6,14} <= 11
 R2_20: 13 R{0,7} + 13 R{0,13} + 13 R{2,3} + 13 R{2,4} + 13 R{2,5}
   + 13 R{2,11} + 13 R{2,15} + 13 R{2,19} + 10 R{3,2} + 10 R{3,3}
   + 10 R{3,4} + 10 R{3,6} + 13 R{3,7} + 10 R{3,10} + 10 R{3,12}
   + 10 R{3,13} + 4 R{3,16} + 10 R{3,20} + 10 R{3,26} + 13 R{3,33}
   + 10 R{3,34} + 13 R{6,1} + 13 R{6,2} + 13 R{6,3} + 13 R{6,5} + 13 R{6,6}
   + 13 R{6,7} + 13 R{6,9} + 13 R{6,11} + 13 R{6,13} + 13 R{6,15}
   + 13 R{6,35} + 13 R{6,36} <= 13
 R2_21: <= 0
 R2_22: 10 R{0,19} + 10 R{0,40} + 10 R{4,27} + 10 R{4,30} + 10 R{4,31}
   + 10 R{4,39} + 10 R{6,32} <= 10
 R2_23: 14 R{3,4} + 14 R{3,21} + 14 R{3,22} + 14 R{3,30} + 14 R{3,32}
   + 14 R{4,13} + 14 R{4,37} + 14 R{6,3} + 14 R{6,4} + 14 R{6,5}
   + 14 R{6,7} + 14 R{6,8} + 14 R{6,10} + 14 R{6,11} + 14 R{6,12}
   + 14 R{6,15} + 14 R{6,16} + 14 R{6,18} + 14 R{6,20} + 14 R{6,21}
   + 14 R{6,23} + 14 R{6,24} + 14 R{6,25} + 14 R{6,26} + 14 R{6,27}
   + 14 R{6,30} + 14 R{6,33} + 14 R{6,34} + 14 R{6,35} + 14 R{6,37}
   + 14 R{6,39} <= 14
 R2_24: 10 R{0,11} + 10 R{0,34} + 10 R{0,36} + 8 R{1,11} + 8 R{2,5}
   + 10 R{3,1} + 10 R{3,2} + 10 R{3,3} + 10 R{3,5} + 10 R{3,6} + 10 R{3,7}
   + 8 R{3,8} + 10 R{3,9} + 10 R{3,10} + 10 R{3,12} + 8 R{3,14}
   + 10 R{3,15} + 10 R{3,17} + 10 R{3,19} + 10 R{3,20} + 10 R{3,24}
   + 10 R{3,26} + 10 R{3,32} + 10 R{3,34} + 10 R{4,11} + 10 R{4,35}
   + 10 R{4,37} + 10 R{5,5} + 8 R{5,10} + 8 R{5,13} + 10 R{5,16}
   + 10 R{5,18} + 10 R{5,19} + 10 R{5,23} + 10 R{5,27} + 10 R{6,19} <= 10
 R2_25: <= 13
 R2_26: 6 R{2,5} + 6 R{2,9} + 6 R{2,14} + 6 R{2,15} + 6 R{2,16} + 6 R{2,20}
   + 6 R{5,1} + 6 R{5,2} + 6 R{5,3} + 6 R{5,4} + 6 R{5,5} + 6 R{5,6}
   + 6 R{5,7} + 6 R{5,8} + 6 R{5,9} + 6 R{5,11} + 6 R{5,12} + 6 R{5,14}
   + 6 R{5,15} + 6 R{5,17} + 6 R{5,18} + 6 R{5,19} + 6 R{5,20} + 6 R{5,23}
   + 6 R{5,28} + 6 R{5,29} + 6 R{5,31} <= 6
 R2_27: 5 R{0,7} + 5 R{0,13} + 5 R{0,17} + 5 R{0,18} + 5 R{0,23}
   + 5 R{0,25} + 5 R{0,29} + 5 R{0,31} + 5 R{0,34} + 5 R{0,36} + 5 R{0,38}
   + 5 R{0,41} + 5 R{1,6} + 5 R{2,15} + 5 R{2,16} + 5 R{2,20} + 5 R{3,12}
   + 5 R{3,16} + 5 R{3,18} + 5 R{3,19} + 5 R{3,22} + 5 R{3,24} + 5 R{3,25}
   + 5 R{3,27} + 5 R{3,29} + 5 R{4,8} + 5 R{4,16} + 5 R{4,18} + 5 R{4,22}
   + 5 R{4,32} + 5 R{5,2} + 5 R{5,3} + 5 R{5,5} + 5 R{5,7} + 5 R{5,11}
   + 5 R{5,15} + 5 R{5,19} + 5 R{5,23} + 5 R{6,1} + 5 R{6,2} + 5 R{6,3}
   + 5 R{6,4} + 5 R{6,5} + 5 R{6,7} + 5 R{6,8} + 5 R{6,9} + 5 R{6,10}
   + 5 R{6,11} + 5 R{6,12} + 5 R{6,13} + 5 R{6,14} + 5 R{6,15} + 5 R{6,16}
   + 5 R{6,17} + 5 R{6,18} + 5 R{6,20} + 5 R{6,22} + 5 R{6,23} + 5 R{6,24}
   + 5 R{6,25} + 5 R{6,26} + 5 R{6,27} + 5 R{6,29} + 5 R{6,30} + 5 R{6,32}
   + 5 R{6,34} + 5 R{6,35} + 5 R{6,36} + 5 R{6,39} <= 5
 R2_28: <= 0
 R2_29: <= 0
 R2_30: <= 0
 R2_31: <= 0
 R2_32: 7 R{0,4} + 7 R{0,5} + 7 R{0,9} + 7 R{0,10} + 7 R{2,19} + 7 R{3,16}
   + 7 R{5,13} + 7 R{5,15} + 7 R{5,16} + 7 R{5,24} + 7 R{5,27} + 7 R{5,28}
   + 7 R{5,29} + 7 R{5,30} <= 7
 R2_33: 12 R{1,7} + 12 R{3,25} + 12 R{3,27} + 12 R{3,30} + 12 R{3,32}
   + 12 R{4,16} + 12 R{4,32} + 12 R{5,4} + 12 R{5,7} <= 12
 R2_34: <= 5
 R2_35: <= 0
 R2_36: 15 R{5,1} + 15 R{5,2} + 15 R{5,3} + 15 R{5,4} + 15 R{5,5}
   + 15 R{5,6} + 15 R{5,7} + 15 R{5,8} + 15 R{5,9} + 15 R{5,10}
   + 15 R{5,11} + 15 R{5,12} + 15 R{5,14} + 15 R{5,17} + 15 R{5,18}
   + 15 R{5,19} + 15 R{5,21} + 15 R{5,22} + 15 R{5,23} + 15 R{5,25}
   + 15 R{5,31} <= 16
 R2_37: 5 R{0,39} + 5 R{1,15} + 5 R{2,20} + 5 R{3,1} + 5 R{3,2} + 5 R{3,3}
   + 5 R{3,4} + 5 R{3,5} + 5 R{3,6} + 5 R{3,9} + 5 R{3,10} + 5 R{3,11}
   + 5 R{3,12} + 5 R{3,13} + 5 R{3,15} + 5 R{3,19} + 5 R{3,20} + 5 R{3,21}
   + 5 R{3,22} + 5 R{3,26} + 5 R{3,28} + 5 R{3,31} + 5 R{3,32} + 5 R{3,34}
   + 5 R{5,25} + 5 R{5,30} <= 5
 R2_38: <= 0
 R2_39: 15 R{0,0} + 15 R{0,1} + 15 R{0,2} + 15 R{0,6} + 15 R{0,7}
   + 15 R{0,8} + 15 R{0,12} + 15 R{0,13} + 15 R{0,18} + 15 R{0,19}
   + 15 R{0,20} + 15 R{0,21} + 15 R{0,22} + 15 R{0,23} + 15 R{0,24}
   + 15 R{0,25} + 15 R{0,26} + 15 R{0,31} + 15 R{0,35} + 15 R{0,39}
   + 15 R{0,40} + 15 R{0,41} <= 17
 R2_40: 15 R{2,1} + 15 R{2,2} + 15 R{2,3} + 15 R{2,4} + 15 R{2,5}
   + 15 R{2,6} + 15 R{2,7} + 15 R{2,8} + 15 R{2,11} + 15 R{2,14}
   + 15 R{2,15} + 15 R{2,16} + 15 R{2,19} + 15 R{4,31} <= 15
 R2_41: 5 R{0,0} + 5 R{0,1} + 5 R{0,2} + 5 R{0,6} + 5 R{0,8} + 5 R{0,11}
   + 5 R{0,15} + 5 R{0,16} + 5 R{0,17} + 5 R{0,19} + 5 R{0,21} + 5 R{0,22}
   + 5 R{0,23} + 5 R{0,24} + 5 R{0,26} + 5 R{0,28} + 5 R{0,29} + 5 R{0,30}
   + 5 R{0,32} + 5 R{0,34} + 5 R{0,36} + 5 R{0,38} + 5 R{0,40} + 5 R{0,42}
   + 5 R{3,2} + 5 R{3,3} + 5 R{3,4} + 5 R{3,6} + 5 R{3,7} + 5 R{3,10}
   + 5 R{3,11} + 5 R{3,13} + 5 R{3,15} + 5 R{3,17} + 5 R{3,18} + 5 R{3,21}
   + 5 R{3,22} + 5 R{3,23} + 5 R{3,26} + 5 R{3,28} + 5 R{3,29} + 5 R{3,31}
   + 5 R{3,33} + 5 R{3,34} + 5 R{4,5} + 5 R{4,6} + 5 R{4,9} + 5 R{4,11}
   + 5 R{4,15} + 5 R{4,17} + 5 R{4,21} + 5 R{4,23} + 5 R{4,26} + 5 R{4,28}
   + 5 R{4,29} + 5 R{4,33} + 5 R{4,35} + 5 R{4,38} + 5 R{4,40} + 5 R{5,31}
   + 5 R{6,9} + 5 R{6,11} + 5 R{6,12} + 5 R{6,13} + 5 R{6,15} + 5 R{6,16}
   + 5 R{6,17} + 5 R{6,18} + 5 R{6,19} + 5 R{6,21} + 5 R{6,23} + 5 R{6,24}
   + 5 R{6,26} + 5 R{6,28} + 5 R{6,30} + 5 R{6,31} + 5 R{6,33} + 5 R{6,34}
   + 5 R{6,35} + 5 R{6,36} + 5 R{6,38} + 5 R{6,39} <= 5
 R2_42: 4 R{2,1} + 4 R{2,2} + 4 R{2,3} + 4 R{2,4} + 4 R{2,5} + 4 R{2,11}
   + 4 R{2,14} + 4 R{2,16} <= 4
 R2_43: <= 0
 R2_44: <= 0
 R2_45: <= 0
 R2_46: 9 R{0,11} + 9 R{0,28} + 9 R{0,34} + 9 R{0,36} + 9 R{0,38}
   + 9 R{0,42} + 9 R{3,6} + 9 R{3,7} + 9 R{3,11} + 9 R{3,17} + 9 R{3,18}
   + 9 R{3,23} + 9 R{3,29} + 9 R{3,33} + 9 R{4,5} + 9 R{4,6} + 9 R{4,8}
   + 9 R{4,10} + 9 R{4,11} + 9 R{4,12} + 9 R{4,14} + 9 R{4,15} + 9 R{4,19}
   + 9 R{4,20} + 9 R{4,21} + 9 R{4,22} + 9 R{4,26} + 9 R{4,27} + 9 R{4,29}
   + 9 R{4,30} + 9 R{4,33} + 9 R{4,34} + 9 R{4,35} + 9 R{4,36} + 9 R{4,38}
   + 9 R{4,39} + 9 R{4,40} + 9 R{6,29} <= 9
 R2_47: 7 R{0,0} + 7 R{0,1} + 7 R{0,2} + 7 R{0,6} + 7 R{0,8} + 7 R{0,19}
   + 7 R{0,21} + 7 R{0,23} + 7 R{0,25} + 7 R{5,1} + 7 R{5,2} + 7 R{5,3}
   + 6 R{5,4} + 7 R{5,5} + 7 R{5,6} + 7 R{5,8} + 7 R{5,9} + 7 R{5,11}
   + 7 R{5,15} + 7 R{5,23} + 7 R{5,29} + 7 R{5,31} <= 7
 R2_48: 4 R{0,28} + 4 R{0,32} + 4 R{4,1} + 4 R{4,2} + 4 R{4,3} + 4 R{4,4}
   + 4 R{4,5} + 4 R{4,6} + 4 R{4,7} + 4 R{4,8} + 4 R{4,9} + 4 R{4,10}
   + 4 R{4,13} + 4 R{4,14} + 4 R{4,15} + 4 R{4,16} + 4 R{4,18} + 4 R{4,20}
   + 4 R{4,21} + 4 R{4,23} + 4 R{4,24} + 4 R{4,25} + 4 R{4,26} + 4 R{4,28}
   + 4 R{4,29} + 4 R{4,30} + 4 R{4,32} + 4 R{4,34} + 4 R{4,35} + 4 R{4,36}
   + 4 R{4,37} + 4 R{4,38} <= 4
 R2_49: <= 0
 R2_50: <= 0
 R2_51: 11 R{0,30} + 11 R{0,33} + 11 R{0,37} + 11 R{1,10} + 11 R{3,28}
   + 11 R{4,1} + 11 R{4,4} + 11 R{4,13} + 11 R{5,16} + 11 R{5,20}
   + 11 R{5,27} + 11 R{6,19} + 11 R{6,21} + 11 R{6,28} + 11 R{6,31}
   + 11 R{6,38} <= 11
 R2_52: 10 R{4,11} + 10 R{4,12} + 10 R{4,17} + 10 R{4,19} + 10 R{4,31}
   <= 10
 R2_53: 13 R{4,1} + 13 R{4,2} + 13 R{4,3} + 13 R{4,4} + 13 R{4,5}
   + 13 R{4,6} + 13 R{4,7} + 13 R{4,8} + 13 R{4,9} + 13 R{4,10}
   + 13 R{4,13} + 13 R{4,14} + 13 R{4,16} + 13 R{4,18} + 13 R{4,22}
   + 13 R{4,24} + 13 R{4,25} + 13 R{4,32} + 13 R{4,33} + 13 R{4,34}
   + 13 R{4,35} + 13 R{4,37} <= 13
 R2_54: 9 R{3,1} + 9 R{3,2} + 9 R{3,3} + 9 R{3,4} + 9 R{3,5} + 9 R{3,6}
   + 9 R{3,7} + 9 R{3,8} + 5 R{3,9} + 9 R{3,10} + 9 R{3,11} + 9 R{3,13}
   + 9 R{3,14} + 9 R{3,15} + 9 R{3,17} + 9 R{3,20} + 9 R{3,21} + 9 R{3,26}
   + 9 R{3,28} + 9 R{3,30} + 9 R{3,31} + 9 R{3,32} + 9 R{3,33} <= 9
 R2_55: 8 R{6,1} + 8 R{6,2} + 8 R{6,3} + 8 R{6,4} + 8 R{6,5} + 8 R{6,7}
   + 8 R{6,8} + 8 R{6,9} + 8 R{6,10} + 8 R{6,13} + 8 R{6,14} + 8 R{6,15}
   + 8 R{6,16} + 8 R{6,17} + 8 R{6,18} + 8 R{6,19} + 8 R{6,20} + 8 R{6,21}
   + 8 R{6,22} + 8 R{6,23} + 8 R{6,25} + 8 R{6,27} + 8 R{6,28} + 8 R{6,29}
   + 8 R{6,30} + 8 R{6,31} + 8 R{6,32} + 8 R{6,33} + 8 R{6,34} + 8 R{6,35}
   + 8 R{6,36} + 8 R{6,37} + 8 R{6,38} + 8 R{6,39} <= 8
 R2_56: 6 R{0,1} + 6 R{0,2} + 6 R{0,11} + 6 R{0,12} + 6 R{0,18} + 6 R{0,23}
   + 6 R{0,25} + 6 R{0,28} + 6 R{0,30} + 6 R{0,32} + 6 R{0,34} + 6 R{0,36}
   + 6 R{3,2} + 6 R{3,3} + 6 R{3,4} + 6 R{3,6} + 6 R{3,7} + 6 R{3,11}
   + 6 R{3,17} + 6 R{3,18} + 6 R{3,20} + 6 R{3,21} + 6 R{3,22} + 6 R{3,23}
   + 6 R{3,29} + 6 R{3,33} + 6 R{4,4} + 6 R{4,20} + 6 R{4,27} + 6 R{6,4}
   + 6 R{6,10} + 6 R{6,14} + 6 R{6,31} <= 6
 R2_57: <= 0
 R2_58: 15 R{4,30} + 15 R{4,31} + 15 R{6,21} + 15 R{6,28} + 15 R{6,34}
   <= 15
 R2_59: 10 R{0,25} + 9 R{3,6} + 9 R{3,7} + 9 R{3,11} + 10 R{3,15}
   + 10 R{3,16} + 10 R{3,17} + 10 R{3,18} + 10 R{3,19} + 10 R{3,20}
   + 9 R{3,23} + 10 R{3,24} + 10 R{3,27} + 10 R{3,29} + 10 R{4,30}
   + 10 R{4,31} + 10 R{6,20} + 10 R{6,27} + 10 R{6,29} <= 10
 R2_60: <= 0
 R2_61: 9 R{0,35} + 9 R{3,10} + 9 R{3,12} + 9 R{3,13} + 9 R{3,16}
   + 9 R{3,26} + 9 R{3,28} + 9 R{3,30} + 9 R{3,31} + 9 R{3,34} + 9 R{4,11}
   + 9 R{4,12} + 9 R{4,17} + 9 R{4,38} + 9 R{4,39} + 9 R{4,40} <= 9
 R2_62: <= 0
 R2_63: <= 0
 R2_64: <= 0
 R2_65: 5 R{0,22} + 5 R{0,24} + 5 R{0,33} + 5 R{3,25} + 5 R{4,15}
   + 5 R{4,29} + 5 R{4,36} + 5 R{6,1} + 5 R{6,2} + 5 R{6,3} + 5 R{6,4}
   + 5 R{6,5} + 5 R{6,7} + 5 R{6,8} + 5 R{6,9} + 5 R{6,10} + 5 R{6,11}
   + 5 R{6,12} + 5 R{6,13} + 5 R{6,14} + 5 R{6,15} + 5 R{6,16} + 5 R{6,18}
   + 5 R{6,19} + 5 R{6,22} + 5 R{6,23} + 5 R{6,24} + 5 R{6,25} + 5 R{6,26}
   + 5 R{6,32} + 5 R{6,35} + 5 R{6,38} + 5 R{6,39} <= 5
 R2_66: 7 R{3,30} + 7 R{6,1} + 7 R{6,2} + 7 R{6,3} + 7 R{6,4} + 7 R{6,5}
   + 7 R{6,7} + 7 R{6,8} + 7 R{6,9} + 7 R{6,10} + 7 R{6,11} + 7 R{6,12}
   + 7 R{6,15} + 7 R{6,17} + 7 R{6,24} + 7 R{6,26} + 7 R{6,33} + 7 R{6,35}
   + 7 R{6,36} + 7 R{6,39} <= 7
 R2_67: 3 R{0,21} + 3 R{0,22} + 3 R{0,26} + 3 R{3,2} + 3 R{3,3} + 3 R{3,4}
   + 3 R{3,6} + 3 R{3,7} + 3 R{3,11} + 3 R{3,17} + 3 R{3,18} + 3 R{3,21}
   + 3 R{3,22} + 3 R{3,23} + 3 R{3,25} + 3 R{3,29} + 3 R{3,32} + 3 R{3,33}
   + 3 R{6,5} + 3 R{6,7} + 3 R{6,8} + 3 R{6,10} + 3 R{6,24} + 3 R{6,25}
   + 3 R{6,35} + 3 R{6,39} <= 3
 R2_68: 6 R{3,30} + 6 R{6,1} + 6 R{6,2} + 6 R{6,3} + 6 R{6,4} + 6 R{6,5}
   + 6 R{6,7} + 6 R{6,8} + 6 R{6,9} + 6 R{6,10} + 6 R{6,11} + 6 R{6,12}
   + 6 R{6,13} + 6 R{6,14} + 6 R{6,15} + 6 R{6,16} + 6 R{6,17} + 6 R{6,18}
   + 6 R{6,20} + 6 R{6,21} + 6 R{6,22} + 6 R{6,23} + 6 R{6,24} + 6 R{6,25}
   + 6 R{6,26} + 6 R{6,28} + 6 R{6,30} + 6 R{6,32} + 6 R{6,33} + 6 R{6,35}
   + 6 R{6,36} + 6 R{6,37} + 6 R{6,39} <= 6
 R2_69: 7 R{0,0} + 7 R{0,1} + 7 R{0,2} + 7 R{0,6} + 7 R{0,8} + 7 R{0,12}
   + 7 R{0,15} + 7 R{0,16} + 7 R{0,19} + 7 R{0,20} + 7 R{0,21} + 7 R{0,22}
   + 7 R{0,24} + 7 R{0,39} + 7 R{0,40} + 7 R{4,1} + 7 R{4,2} + 7 R{4,3}
   + 7 R{4,4} + 7 R{4,5} + 7 R{4,6} + 7 R{4,7} + 7 R{4,8} + 7 R{4,9}
   + 7 R{4,10} + 7 R{4,13} + 7 R{4,14} + 7 R{4,15} + 7 R{4,20} + 7 R{4,21}
   + 7 R{4,23} + 7 R{4,24} + 7 R{4,25} + 7 R{4,27} + 7 R{4,28} + 7 R{4,30}
   + 7 R{4,33} + 7 R{4,35} + 7 R{4,40} + 7 R{5,11} <= 7
 R2_70: 11 R{1,1} + 11 R{1,2} + 11 R{1,3} + 11 R{1,5} + 11 R{1,6}
   + 11 R{1,10} <= 11
 R2_71: 7 R{0,30} + 7 R{0,33} + 7 R{3,1} + 7 R{3,2} + 7 R{3,3} + 7 R{3,8}
   + 7 R{3,10} + 7 R{3,12} + 7 R{3,13} + 7 R{3,26} + 7 R{3,34} + 7 R{4,31}
   + 7 R{5,4} + 7 R{5,7} + 7 R{5,31} + 7 R{6,33} + 7 R{6,37} <= 7
 R2_72: <= 0
 R2_73: 11 R{0,0} + 11 R{0,1} + 11 R{0,2} + 11 R{0,6} + 11 R{0,7}
   + 11 R{0,8} + 11 R{0,11} + 11 R{0,12} + 11 R{0,15} + 11 R{0,16}
   + 11 R{0,17} + 11 R{0,19} + 11 R{0,20} + 11 R{0,23} + 11 R{0,25}
   + 11 R{0,28} + 11 R{0,29} + 11 R{0,30} + 11 R{0,31} + 11 R{0,32}
   + 11 R{0,33} + 11 R{0,34} + 11 R{0,35} + 11 R{0,36} + 11 R{0,37}
   + 11 R{0,38} + 11 R{0,39} + 11 R{0,40} + 11 R{0,41} + 11 R{0,42} <= 11
 R2_74: 5 R{5,1} + 5 R{5,2} + 5 R{5,3} + 5 R{5,4} + 5 R{5,5} + 5 R{5,6}
   + 5 R{5,7} + 5 R{5,9} + 5 R{5,10} + 5 R{5,13} + 5 R{5,14} + 5 R{5,15}
   + 5 R{5,17} + 5 R{5,18} + 5 R{5,24} + 5 R{5,25} + 5 R{5,28} + 5 R{5,29}
   + 5 R{5,30} + 5 R{5,31} <= 5
 R2_75: 8 R{6,1} + 8 R{6,2} + 8 R{6,3} + 8 R{6,4} + 8 R{6,7} + 8 R{6,10}
   + 8 R{6,14} + 8 R{6,17} + 8 R{6,22} + 8 R{6,36} <= 8
 R2_76: 12 R{0,4} + 12 R{0,5} + 12 R{0,10} + 12 R{2,4} + 12 R{3,3}
   + 12 R{3,6} + 12 R{3,7} + 12 R{3,11} + 12 R{3,13} + 12 R{3,15}
   + 12 R{3,20} + 12 R{3,28} + 12 R{3,33} + 12 R{5,5} + 12 R{5,6}
   + 12 R{5,10} + 12 R{5,11} + 12 R{5,13} + 12 R{5,14} + 12 R{5,16}
   + 12 R{5,17} + 12 R{5,18} + 12 R{5,19} + 12 R{5,20} + 12 R{5,22}
   + 12 R{5,23} + 12 R{5,24} + 12 R{5,25} + 12 R{5,27} + 12 R{5,30} <= 12
 R2_77: 7 R{0,1} + 7 R{0,2} + 7 R{0,5} + 7 R{0,8} + 7 R{0,9} + 7 R{0,11}
   + 7 R{0,20} + 7 R{0,23} + 7 R{0,25} + 7 R{0,27} + 7 R{0,31} + 7 R{0,34}
   + 7 R{0,38} + 7 R{0,40} + 7 R{1,2} + 7 R{1,3} + 7 R{1,4} + 7 R{1,7}
   + 7 R{1,8} + 7 R{1,9} + 7 R{1,11} + 7 R{1,12} + 7 R{1,13} + 7 R{1,14}
   + 7 R{1,15} + 7 R{2,2} + 7 R{2,3} + 7 R{2,4} + 7 R{2,5} + 7 R{2,7}
   + 7 R{2,8} + 7 R{2,10} + 7 R{2,12} + 7 R{2,13} + 7 R{2,15} + 7 R{2,16}
   + 7 R{2,17} + 7 R{2,18} + 7 R{2,20} + 7 R{2,21} + 7 R{2,22} + 7 R{3,4}
   + 7 R{3,6} + 7 R{3,8} + 7 R{3,11} + 7 R{3,14} + 7 R{3,17} + 7 R{3,18}
   + 7 R{3,21} + 7 R{3,22} + 7 R{3,24} + 7 R{3,25} + 7 R{3,27} + 7 R{3,29}
   + 7 R{3,31} + 7 R{3,33} + 7 R{4,2} + 7 R{4,3} + 7 R{4,5} + 7 R{4,7}
   + 7 R{4,9} + 7 R{4,11} + 7 R{4,14} + 7 R{4,16} + 7 R{4,18} + 7 R{4,22}
   + 7 R{4,24} + 7 R{4,25} + 7 R{4,30} + 7 R{4,32} + 7 R{4,33} + 7 R{4,40}
   + 7 R{5,2} + 7 R{5,3} + 7 R{5,4} + 7 R{5,6} + 7 R{5,7} + 7 R{5,8}
   + 7 R{5,10} + 7 R{5,12} + 7 R{5,13} + 7 R{5,15} + 7 R{5,17} + 7 R{5,18}
   + 7 R{5,19} + 7 R{5,21} + 7 R{5,22} + 7 R{5,23} + 7 R{5,26} + 7 R{5,28}
   + 7 R{5,31} + 7 R{6,2} + 7 R{6,3} + 7 R{6,5} + 7 R{6,7} + 7 R{6,9}
   + 7 R{6,11} + 7 R{6,12} + 7 R{6,14} + 7 R{6,16} + 7 R{6,18} + 7 R{6,20}
   + 7 R{6,22} + 7 R{6,25} + 7 R{6,27} + 7 R{6,29} + 7 R{6,30} + 7 R{6,32}
   + 7 R{6,35} + 7 R{6,39} <= 7
Bounds
End
